(set-info :smt-lib-version 2.6)
(set-logic QF_NRA)
(set-info :source |
Generated by: Ali K. Uncu, Matthew England, and James H. Davenport
Generated on: 2022-01-08

Generator: SUMCracker-ProveInequality function by Manuel Kauers ("https://www3.risc.jku.at/research/combinat/software/ergosum/RISC/SumCracker.html")
Translated to SMT-Lib by Maple SMTLIB package.

Application: 
CAD calls of SUMCracker-ProveInequality to prove Mitrinovic (5.15) inequality in
S. Gerhold and M. Kauers, A Procedure for Proving Special Function Inequalities Involving a Discrete Parameter.
ISSAC '05: Proceedings of the 2005 international symposium on Symbolic and algebraic computationJuly 2005 Pages 156-162.
(https://dl.acm.org/doi/10.1145/1073884.1073907)
|)
(set-info :license "https://creativecommons.org/licenses/by/4.0/")
(set-info :status unsat)
(set-info :category "industrial")

(declare-fun V1 () Real)
(declare-fun V2 () Real)
(declare-fun V3 () Real)
(declare-fun y () Real)
(assert (and (<= y 1) (<= (- 1) y) (<= V1 1) (<= (- 1) V1) (<= V2 1) (<= (- 1) V2) (<= (- (* (* y V2) 2) V1) 1) (<= (- 1) (- (* (* y V2) 2) V1)) (<= (+ (* (* (* y y) V2) 4) (* (* y V1) (- 2)) (* V2 (- 1))) 1) (<= (- 1) (+ (* (* (* y y) V2) 4) (* (* y V1) (- 2)) (* V2 (- 1)))) (= (+ (* (* y V1 V2) (- 1)) (* (* V1 V1) (- 1)) (* (* V2 V2) (- 1)) (* y y) (- 1)) 1) (= (+ (* (* (* y y) (* V2 V2)) (- 6)) (* (* y V1 V2) 5) (* (* V1 V1) (- 1)) (* (* V2 V2) (- 1)) (* y y) (- 1)) 1) (<= (* V1 (/ 1 2)) V3) (<= (* V2 (/ 1 2)) (+ V2 V3)) (< (+ (* (* y V2) 2) (* V1 (- 1)) V2 V3) (+ (* V1 (/ (- 1) 2)) (* y V2)))))
(check-sat)
(exit)






























































